ammonia flipping
1.
6. 0. 0.
0. 7. 0.
0. 0. 8.
H N
3 1
cart
       -0.872954        0.000000       -0.504000
        0.000000        0.000000        1.008000
        0.872954        0.000000       -0.504000
        0.000000        0.000000        0.000000

